33D32945 STP File, STP Format Version 1.0
SECTION Graph
Nodes 1853
Edges 2130
E 4 3 1
E 5 4 1
E 9 6 1
E 14 7 1
E 15 8 1
E 7 9 1
E 66 9 1
E 9 10 1
E 10 11 1
E 10 12 1
E 11 13 1
E 12 13 1
E 8 14 1
E 6 15 1
E 19 17 1
E 22 18 1
E 20 19 1
E 18 20 1
E 16 21 1
E 21 22 1
E 25 23 1
E 27 24 1
E 24 25 1
E 31 26 1
E 28 27 1
E 29 28 1
E 26 29 1
E 23 30 1
E 67 33 1
E 33 34 1
E 32 35 1
E 40 36 1
E 35 37 1
E 36 37 1
E 32 38 1
E 38 39 1
E 67 39 1
E 34 40 1
E 46 41 1
E 43 42 1
E 45 43 1
E 42 44 1
E 49 44 1
E 46 45 1
E 49 47 1
E 41 48 1
E 47 48 1
E 53 52 1
E 69 53 1
E 52 54 1
E 60 56 1
E 61 57 1
E 62 57 1
E 59 58 1
E 65 59 1
E 58 60 1
E 63 61 1
E 56 62 1
E 63 64 1
E 65 64 1
E 55 65 1
E 66 65 1
E 148 65 1
E 161 65 1
E 141 66 1
E 66 67 1
E 68 67 1
E 151 67 1
E 50 68 1
E 143 68 1
E 68 69 1
E 70 69 1
E 51 70 1
E 105 70 1
E 43 71 1
E 70 71 1
E 92 71 1
E 118 71 1
E 121 71 1
E 27 72 1
E 71 72 1
E 125 72 1
E 127 72 1
E 18 73 1
E 72 73 1
E 97 73 1
E 130 73 1
E 134 73 1
E 76 74 1
E 77 75 1
E 73 76 1
E 75 76 1
E 74 77 1
E 65 78 1
E 79 78 1
E 80 79 1
E 82 81 1
E 67 82 1
E 81 83 1
E 89 84 1
E 86 85 1
E 91 86 1
E 85 87 1
E 87 88 1
E 90 89 1
E 91 90 1
E 92 93 1
E 92 94 1
E 93 95 1
E 94 95 1
E 97 96 1
E 96 98 1
E 482 481 1
E 483 482 1
E 69 99 1
E 99 100 1
E 100 101 1
E 104 102 1
E 105 103 1
E 103 104 1
E 106 105 1
E 102 106 1
E 109 107 1
E 107 108 1
E 112 109 1
E 161 109 1
E 108 110 1
E 110 111 1
E 111 112 1
E 65 113 1
E 113 114 1
E 113 115 1
E 114 116 1
E 115 116 1
E 119 117 1
E 118 119 1
E 122 121 1
E 120 122 1
E 197 123 1
E 128 124 1
E 126 125 1
E 123 126 1
E 124 127 1
E 197 128 1
E 131 130 1
E 129 131 1
E 134 132 1
E 132 133 1
E 135 136 1
E 137 136 1
E 135 138 1
E 141 138 1
E 136 139 1
E 139 140 1
E 137 141 1
E 140 141 1
E 145 142 1
E 143 144 1
E 144 145 1
E 142 146 1
E 248 147 1
E 149 148 1
E 147 149 1
E 151 150 1
E 150 152 1
E 69 153 1
E 146 153 1
E 154 153 1
E 154 155 1
E 155 156 1
E 154 157 1
E 157 158 1
E 156 159 1
E 158 159 1
E 161 160 1
E 91 161 1
E 194 161 1
E 206 161 1
E 166 163 1
E 163 164 1
E 164 165 1
E 165 166 1
E 161 167 1
E 171 167 1
E 167 168 1
E 168 169 1
E 169 170 1
E 170 171 1
E 73 172 1
E 162 172 1
E 222 172 1
E 206 173 1
E 176 174 1
E 176 175 1
E 172 176 1
E 174 177 1
E 175 177 1
E 249 178 1
E 178 179 1
E 179 180 1
E 178 181 1
E 181 182 1
E 180 183 1
E 182 183 1
E 185 184 1
E 191 185 1
E 186 187 1
E 187 188 1
E 186 189 1
E 189 190 1
E 190 191 1
E 184 192 1
E 188 192 1
E 194 193 1
E 195 194 1
E 196 195 1
E 200 198 1
E 202 198 1
E 205 199 1
E 199 200 1
E 206 201 1
E 201 202 1
E 204 203 1
E 206 204 1
E 203 205 1
E 164 206 1
E 226 206 1
E 263 206 1
E 430 206 1
E 136 207 1
E 248 207 1
E 213 211 1
E 214 212 1
E 212 213 1
E 209 208 1
E 210 209 1
E 218 216 1
E 216 217 1
E 243 219 1
E 218 220 1
E 219 220 1
E 223 222 1
E 224 223 1
E 227 226 1
E 225 227 1
E 249 228 1
E 229 230 1
E 230 231 1
E 229 232 1
E 231 233 1
E 232 233 1
E 256 238 1
E 384 238 1
E 152 239 1
E 207 239 1
E 238 239 1
E 306 239 1
E 215 240 1
E 238 240 1
E 153 241 1
E 242 241 1
E 268 241 1
E 211 242 1
E 240 242 1
E 217 243 1
E 221 243 1
E 241 243 1
E 243 244 1
E 397 244 1
E 120 245 1
E 197 245 1
E 244 245 1
E 270 245 1
E 129 246 1
E 197 246 1
E 284 246 1
E 210 247 1
E 246 247 1
E 396 247 1
E 249 248 1
E 305 248 1
E 375 249 1
E 252 251 1
E 253 252 1
E 360 252 1
E 251 254 1
E 253 254 1
E 249 255 1
E 338 256 1
E 257 258 1
E 257 259 1
E 258 260 1
E 259 260 1
E 172 261 1
E 186 261 1
E 257 261 1
E 341 261 1
E 348 261 1
E 416 261 1
E 261 262 1
E 263 264 1
E 264 265 1
E 267 265 1
E 263 266 1
E 266 267 1
E 241 269 1
E 273 270 1
E 275 270 1
E 276 271 1
E 275 272 1
E 278 272 1
E 274 273 1
E 272 274 1
E 270 276 1
E 271 277 1
E 275 277 1
E 277 278 1
E 287 280 1
E 279 281 1
E 280 282 1
E 281 282 1
E 280 284 1
E 285 284 1
E 283 285 1
E 287 285 1
E 279 286 1
E 283 286 1
E 279 287 1
E 240 289 1
E 289 290 1
E 292 290 1
E 289 291 1
E 291 292 1
E 240 293 1
E 295 293 1
E 293 294 1
E 294 296 1
E 295 296 1
E 298 297 1
E 243 298 1
E 298 299 1
E 297 300 1
E 299 300 1
E 304 301 1
E 303 302 1
E 304 302 1
E 379 303 1
E 379 304 1
E 302 305 1
E 301 306 1
E 302 306 1
E 303 307 1
E 305 307 1
E 236 235 1
E 235 237 1
E 315 314 1
E 315 316 1
E 321 317 1
E 319 318 1
E 320 318 1
E 317 319 1
E 321 320 1
E 430 322 1
E 322 323 1
E 323 324 1
E 324 325 1
E 359 326 1
E 326 327 1
E 327 328 1
E 331 329 1
E 330 331 1
E 330 332 1
E 333 332 1
E 329 333 1
E 255 334 1
E 335 334 1
E 336 334 1
E 303 335 1
E 335 336 1
E 304 337 1
E 338 337 1
E 339 337 1
E 338 339 1
E 340 341 1
E 343 342 1
E 341 343 1
E 348 344 1
E 344 345 1
E 347 346 1
E 348 347 1
E 345 349 1
E 346 349 1
E 312 309 1
E 311 310 1
E 313 310 1
E 309 311 1
E 313 312 1
E 350 351 1
E 351 352 1
E 353 352 1
E 350 354 1
E 353 354 1
E 385 355 1
E 355 356 1
E 356 357 1
E 357 358 1
E 196 359 1
E 229 359 1
E 249 359 1
E 330 359 1
E 318 360 1
E 359 360 1
E 364 361 1
E 363 362 1
E 361 363 1
E 362 364 1
E 386 364 1
E 367 365 1
E 431 366 1
E 366 367 1
E 369 368 1
E 370 369 1
E 372 373 1
E 374 373 1
E 376 375 1
E 411 375 1
E 502 375 1
E 336 376 1
E 378 376 1
E 381 376 1
E 462 376 1
E 466 376 1
E 382 377 1
E 383 377 1
E 382 378 1
E 381 379 1
E 379 380 1
E 339 383 1
E 380 383 1
E 469 383 1
E 470 383 1
E 383 384 1
E 487 384 1
E 384 385 1
E 241 386 1
E 385 386 1
E 350 387 1
E 386 387 1
E 278 388 1
E 392 388 1
E 454 388 1
E 388 389 1
E 394 390 1
E 393 391 1
E 391 392 1
E 395 393 1
E 389 394 1
E 279 395 1
E 390 395 1
E 459 395 1
E 395 396 1
E 421 396 1
E 504 396 1
E 387 397 1
E 388 397 1
E 484 397 1
E 399 398 1
E 430 399 1
E 398 400 1
E 404 401 1
E 430 401 1
E 401 402 1
E 402 403 1
E 403 405 1
E 404 405 1
E 407 406 1
E 408 406 1
E 360 407 1
E 409 407 1
E 409 408 1
E 412 410 1
E 414 410 1
E 332 412 1
E 411 412 1
E 411 413 1
E 413 414 1
E 374 416 1
E 420 417 1
E 416 418 1
E 418 419 1
E 419 420 1
E 421 422 1
E 422 423 1
E 423 424 1
E 426 425 1
E 342 426 1
E 431 426 1
E 519 426 1
E 426 427 1
E 427 428 1
E 428 429 1
E 534 430 1
E 247 431 1
E 236 431 1
E 310 431 1
E 386 432 1
E 434 433 1
E 436 434 1
E 436 435 1
E 596 435 1
E 440 437 1
E 385 438 1
E 438 439 1
E 439 440 1
E 447 448 1
E 448 449 1
E 426 450 1
E 450 451 1
E 452 451 1
E 454 453 1
E 455 454 1
E 456 455 1
E 453 456 1
E 460 457 1
E 457 458 1
E 458 459 1
E 459 460 1
E 463 461 1
E 462 463 1
E 505 464 1
E 464 465 1
E 465 466 1
E 468 467 1
E 469 468 1
E 471 470 1
E 472 471 1
E 506 472 1
E 474 473 1
E 475 474 1
E 416 475 1
E 475 476 1
E 477 476 1
E 473 477 1
E 480 478 1
E 386 480 1
E 479 480 1
E 485 484 1
E 559 485 1
E 488 487 1
E 443 441 1
E 444 442 1
E 446 442 1
E 416 443 1
E 445 444 1
E 443 445 1
E 441 446 1
E 534 489 1
E 489 490 1
E 490 491 1
E 492 493 1
E 492 494 1
E 492 495 1
E 493 496 1
E 494 496 1
E 495 496 1
E 497 498 1
E 498 499 1
E 499 500 1
E 554 501 1
E 501 502 1
E 557 503 1
E 503 504 1
E 461 505 1
E 467 506 1
E 456 507 1
E 375 508 1
E 492 508 1
E 596 509 1
E 512 510 1
E 514 510 1
E 513 511 1
E 511 512 1
E 515 514 1
E 513 515 1
E 518 516 1
E 516 517 1
E 549 517 1
E 416 519 1
E 547 519 1
E 561 519 1
E 610 519 1
E 519 520 1
E 523 521 1
E 524 521 1
E 523 522 1
E 522 524 1
E 525 524 1
E 523 525 1
E 457 526 1
E 519 527 1
E 527 528 1
E 528 529 1
E 531 530 1
E 532 530 1
E 561 531 1
E 534 533 1
E 574 533 1
E 587 533 1
E 634 533 1
E 447 534 1
E 513 534 1
E 536 535 1
E 533 537 1
E 536 537 1
E 539 537 1
E 540 538 1
E 538 539 1
E 535 540 1
E 542 541 1
E 598 542 1
E 541 543 1
E 545 544 1
E 546 545 1
E 562 546 1
E 615 549 1
E 617 549 1
E 396 550 1
E 523 550 1
E 552 551 1
E 549 552 1
E 551 553 1
E 505 554 1
E 556 554 1
E 488 555 1
E 506 555 1
E 555 556 1
E 526 557 1
E 558 557 1
E 507 559 1
E 558 559 1
E 622 561 1
E 416 562 1
E 567 563 1
E 569 564 1
E 562 565 1
E 568 565 1
E 565 566 1
E 566 567 1
E 564 568 1
E 574 572 1
E 575 573 1
E 599 573 1
E 573 574 1
E 572 576 1
E 575 576 1
E 579 577 1
E 580 578 1
E 580 579 1
E 577 581 1
E 578 581 1
E 584 583 1
E 615 583 1
E 582 584 1
E 589 585 1
E 587 586 1
E 587 588 1
E 588 589 1
E 591 590 1
E 586 591 1
E 595 592 1
E 599 592 1
E 592 593 1
E 593 594 1
E 594 595 1
E 360 596 1
E 430 596 1
E 486 596 1
E 497 596 1
E 549 596 1
E 599 597 1
E 711 597 1
E 548 598 1
E 596 598 1
E 598 599 1
E 636 599 1
E 562 600 1
E 602 600 1
E 600 601 1
E 603 601 1
E 602 603 1
E 608 604 1
E 604 605 1
E 605 606 1
E 606 607 1
E 609 608 1
E 607 609 1
E 570 610 1
E 607 610 1
E 691 610 1
E 613 611 1
E 613 612 1
E 610 613 1
E 611 614 1
E 612 614 1
E 508 615 1
E 560 615 1
E 623 615 1
E 649 615 1
E 686 615 1
E 617 616 1
E 616 618 1
E 620 619 1
E 561 620 1
E 619 621 1
E 550 622 1
E 571 622 1
E 578 622 1
E 642 622 1
E 666 622 1
E 623 624 1
E 624 625 1
E 652 626 1
E 626 627 1
E 627 628 1
E 630 629 1
E 631 630 1
E 652 630 1
E 629 631 1
E 634 632 1
E 632 633 1
E 635 633 1
E 634 635 1
E 636 637 1
E 637 638 1
E 610 639 1
E 642 640 1
E 807 641 1
E 641 642 1
E 644 643 1
E 597 644 1
E 646 644 1
E 647 645 1
E 645 646 1
E 643 647 1
E 692 648 1
E 648 649 1
E 649 650 1
E 652 651 1
E 719 651 1
E 727 651 1
E 479 652 1
E 654 653 1
E 655 653 1
E 702 655 1
E 654 656 1
E 658 657 1
E 651 658 1
E 658 659 1
E 659 660 1
E 657 661 1
E 686 662 1
E 662 663 1
E 663 664 1
E 666 665 1
E 665 667 1
E 670 668 1
E 669 670 1
E 702 671 1
E 671 673 1
E 672 673 1
E 671 674 1
E 672 675 1
E 674 675 1
E 622 676 1
E 669 676 1
E 691 677 1
E 677 678 1
E 677 679 1
E 679 680 1
E 678 681 1
E 680 681 1
E 683 682 1
E 684 682 1
E 691 682 1
E 685 683 1
E 685 684 1
E 652 687 1
E 597 689 1
E 688 689 1
E 688 690 1
E 723 691 1
E 734 691 1
E 693 692 1
E 696 692 1
E 903 692 1
E 699 693 1
E 719 693 1
E 696 694 1
E 694 695 1
E 696 697 1
E 697 698 1
E 699 700 1
E 701 700 1
E 562 702 1
E 707 703 1
E 709 703 1
E 807 703 1
E 706 705 1
E 708 705 1
E 652 706 1
E 709 706 1
E 704 707 1
E 704 710 1
E 708 710 1
E 801 710 1
E 686 711 1
E 712 713 1
E 714 713 1
E 735 715 1
E 715 716 1
E 716 717 1
E 717 718 1
E 761 719 1
E 766 719 1
E 721 720 1
E 720 722 1
E 723 724 1
E 723 725 1
E 724 726 1
E 725 726 1
E 730 727 1
E 731 728 1
E 728 729 1
E 729 730 1
E 732 731 1
E 727 732 1
E 749 733 1
E 676 734 1
E 788 734 1
E 802 734 1
E 533 735 1
E 722 735 1
E 771 735 1
E 848 735 1
E 736 737 1
E 742 737 1
E 741 738 1
E 743 738 1
E 737 739 1
E 738 740 1
E 739 740 1
E 736 741 1
E 743 742 1
E 597 744 1
E 721 744 1
E 737 744 1
E 756 744 1
E 746 745 1
E 745 747 1
E 807 748 1
E 702 749 1
E 747 749 1
E 792 749 1
E 796 749 1
E 810 749 1
E 812 749 1
E 899 749 1
E 692 750 1
E 752 750 1
E 751 752 1
E 692 753 1
E 735 755 1
E 754 755 1
E 754 756 1
E 759 757 1
E 913 758 1
E 758 759 1
E 763 760 1
E 763 761 1
E 912 762 1
E 762 763 1
E 913 764 1
E 760 765 1
E 764 765 1
E 765 766 1
E 769 767 1
E 693 768 1
E 767 768 1
E 777 770 1
E 776 771 1
E 771 772 1
E 772 773 1
E 776 774 1
E 773 775 1
E 779 775 1
E 777 776 1
E 770 778 1
E 774 778 1
E 784 780 1
E 783 781 1
E 781 782 1
E 780 783 1
E 782 784 1
E 787 785 1
E 785 786 1
E 787 786 1
E 784 788 1
E 829 788 1
E 691 789 1
E 746 789 1
E 781 789 1
E 831 789 1
E 898 789 1
E 795 790 1
E 798 790 1
E 792 791 1
E 794 793 1
E 791 794 1
E 793 795 1
E 796 797 1
E 797 798 1
E 914 799 1
E 912 800 1
E 799 801 1
E 800 801 1
E 803 802 1
E 894 803 1
E 804 805 1
E 808 805 1
E 804 806 1
E 712 807 1
E 785 807 1
E 807 808 1
E 789 809 1
E 811 809 1
E 811 810 1
E 812 813 1
E 813 814 1
E 711 815 1
E 816 815 1
E 819 817 1
E 820 817 1
E 788 818 1
E 818 819 1
E 894 820 1
E 822 821 1
E 823 822 1
E 848 823 1
E 849 824 1
E 824 825 1
E 824 826 1
E 825 827 1
E 826 827 1
E 831 828 1
E 832 829 1
E 829 830 1
E 830 831 1
E 828 832 1
E 834 833 1
E 835 833 1
E 838 834 1
E 837 836 1
E 835 837 1
E 839 838 1
E 839 840 1
E 836 841 1
E 844 843 1
E 842 844 1
E 846 845 1
E 849 846 1
E 845 847 1
E 848 847 1
E 833 848 1
E 842 848 1
E 959 848 1
E 744 849 1
E 843 849 1
E 851 849 1
E 866 849 1
E 873 849 1
E 852 850 1
E 858 850 1
E 850 851 1
E 852 851 1
E 853 852 1
E 879 854 1
E 854 855 1
E 855 856 1
E 870 858 1
E 880 858 1
E 861 860 1
E 859 861 1
E 858 862 1
E 860 862 1
E 858 863 1
E 872 864 1
E 863 865 1
E 864 865 1
E 858 867 1
E 871 867 1
E 859 868 1
E 866 869 1
E 866 870 1
E 869 870 1
E 868 871 1
E 711 872 1
E 738 872 1
E 856 872 1
E 869 872 1
E 874 872 1
E 876 872 1
E 881 872 1
E 874 873 1
E 875 873 1
E 875 874 1
E 857 875 1
E 878 876 1
E 879 877 1
E 877 878 1
E 884 879 1
E 882 881 1
E 880 882 1
E 859 883 1
E 816 884 1
E 885 884 1
E 883 885 1
E 788 886 1
E 888 886 1
E 888 887 1
E 993 887 1
E 788 889 1
E 891 889 1
E 890 891 1
E 893 892 1
E 894 893 1
E 820 895 1
E 897 895 1
E 953 895 1
E 818 896 1
E 895 896 1
E 952 897 1
E 943 898 1
E 937 899 1
E 906 900 1
E 903 901 1
E 901 902 1
E 907 902 1
E 906 903 1
E 905 904 1
E 907 904 1
E 900 905 1
E 909 907 1
E 908 909 1
E 909 910 1
E 917 910 1
E 982 911 1
E 1022 911 1
E 908 913 1
E 911 916 1
E 912 916 1
E 913 916 1
E 914 916 1
E 915 916 1
E 917 916 1
E 919 918 1
E 920 919 1
E 914 920 1
E 922 921 1
E 914 922 1
E 921 923 1
E 921 924 1
E 923 925 1
E 926 925 1
E 915 926 1
E 925 927 1
E 928 927 1
E 808 928 1
E 924 928 1
E 930 929 1
E 899 930 1
E 929 931 1
E 931 932 1
E 934 933 1
E 899 934 1
E 933 935 1
E 935 936 1
E 942 937 1
E 937 938 1
E 941 938 1
E 943 939 1
E 937 940 1
E 939 942 1
E 940 943 1
E 941 943 1
E 946 944 1
E 947 945 1
E 945 946 1
E 948 947 1
E 944 948 1
E 950 949 1
E 883 950 1
E 954 951 1
E 951 952 1
E 993 952 1
E 892 953 1
E 953 954 1
E 956 955 1
E 957 956 1
E 962 958 1
E 959 960 1
E 960 961 1
E 963 962 1
E 959 963 1
E 849 964 1
E 964 965 1
E 967 966 1
E 1040 966 1
E 964 967 1
E 966 968 1
E 970 969 1
E 892 970 1
E 992 971 1
E 973 972 1
E 971 973 1
E 975 974 1
E 980 975 1
E 974 976 1
E 978 977 1
E 980 978 1
E 977 979 1
E 928 980 1
E 980 981 1
E 1033 981 1
E 1117 981 1
E 915 983 1
E 984 983 1
E 982 984 1
E 987 985 1
E 988 985 1
E 990 986 1
E 986 987 1
E 988 989 1
E 989 991 1
E 898 992 1
E 947 992 1
E 1012 992 1
E 1030 992 1
E 1080 992 1
E 890 993 1
E 946 993 1
E 1014 993 1
E 981 994 1
E 995 994 1
E 994 996 1
E 995 996 1
E 998 997 1
E 1002 998 1
E 1006 999 1
E 998 1000 1
E 999 1001 1
E 1003 1002 1
E 1001 1003 1
E 997 1004 1
E 1000 1005 1
E 1004 1005 1
E 1007 1008 1
E 1008 1009 1
E 1014 1010 1
E 1010 1011 1
E 1011 1012 1
E 1012 1013 1
E 1013 1014 1
E 1016 1015 1
E 1017 1016 1
E 1015 1017 1
E 1084 1018 1
E 911 1019 1
E 1019 1020 1
E 1020 1021 1
E 1022 1023 1
E 1025 1023 1
E 1023 1024 1
E 1028 1025 1
E 1028 1026 1
E 917 1027 1
E 1027 1028 1
E 899 1029 1
E 955 1029 1
E 972 1029 1
E 985 1029 1
E 1030 1031 1
E 1031 1032 1
E 848 1034 1
E 963 1034 1
E 1002 1034 1
E 1037 1034 1
E 1056 1034 1
E 1081 1034 1
E 1237 1034 1
E 1036 1035 1
E 1039 1037 1
E 1036 1038 1
E 1037 1038 1
E 1035 1039 1
E 849 1040 1
E 1048 1040 1
E 1053 1040 1
E 1188 1040 1
E 1042 1041 1
E 1044 1041 1
E 858 1043 1
E 1043 1044 1
E 1043 1045 1
E 1047 1046 1
E 1045 1047 1
E 1042 1048 1
E 1046 1048 1
E 1029 1049 1
E 1049 1050 1
E 1050 1051 1
E 1053 1052 1
E 1052 1054 1
E 969 1055 1
E 993 1055 1
E 1099 1055 1
E 1058 1057 1
E 1121 1058 1
E 1057 1059 1
E 1024 1060 1
E 1026 1060 1
E 858 1061 1
E 949 1061 1
E 1063 1062 1
E 981 1063 1
E 1062 1064 1
E 1066 1065 1
E 1070 1067 1
E 1067 1068 1
E 1068 1069 1
E 1120 1069 1
E 984 1070 1
E 1065 1070 1
E 1069 1071 1
E 1072 1071 1
E 981 1072 1
E 1066 1072 1
E 1075 1074 1
E 1073 1075 1
E 1079 1076 1
E 1084 1076 1
E 1078 1077 1
E 1079 1077 1
E 1076 1078 1
E 1055 1080 1
E 1097 1080 1
E 1082 1081 1
E 1082 1083 1
E 900 1084 1
E 1015 1084 1
E 1085 1084 1
E 1007 1085 1
E 1060 1085 1
E 1073 1085 1
E 1080 1086 1
E 1086 1088 1
E 1087 1088 1
E 1086 1089 1
E 1090 1089 1
E 1087 1090 1
E 1113 1092 1
E 1094 1093 1
E 1098 1094 1
E 1098 1095 1
E 1093 1096 1
E 1097 1096 1
E 1095 1097 1
E 1061 1100 1
E 1104 1100 1
E 1107 1100 1
E 1103 1102 1
E 1104 1103 1
E 1106 1105 1
E 1107 1106 1
E 1113 1108 1
E 1108 1109 1
E 1112 1109 1
E 1108 1110 1
E 1110 1111 1
E 1029 1113 1
E 1114 1115 1
E 1115 1116 1
E 1121 1116 1
E 1117 1118 1
E 1152 1118 1
E 1118 1119 1
E 1101 1120 1
E 1165 1120 1
E 1302 1120 1
E 1060 1121 1
E 1120 1121 1
E 1123 1122 1
E 1237 1123 1
E 1122 1124 1
E 1126 1125 1
E 1127 1125 1
E 1189 1126 1
E 1131 1128 1
E 1130 1129 1
E 1128 1130 1
E 1129 1131 1
E 1132 1133 1
E 1132 1134 1
E 1133 1135 1
E 1134 1135 1
E 1237 1136 1
E 1136 1137 1
E 1137 1138 1
E 1138 1139 1
E 1142 1140 1
E 1140 1141 1
E 1142 1143 1
E 1143 1144 1
E 1146 1145 1
E 1147 1146 1
E 1113 1147 1
E 1145 1148 1
E 1150 1149 1
E 1084 1150 1
E 1149 1151 1
E 1099 1152 1
E 1130 1152 1
E 1179 1152 1
E 1194 1152 1
E 1153 1154 1
E 1154 1155 1
E 1157 1156 1
E 1206 1157 1
E 1156 1158 1
E 1157 1159 1
E 1158 1160 1
E 1159 1160 1
E 1120 1161 1
E 1161 1163 1
E 1162 1163 1
E 1165 1164 1
E 1164 1166 1
E 1080 1167 1
E 1142 1167 1
E 1196 1167 1
E 1167 1168 1
E 1100 1169 1
E 1149 1169 1
E 1153 1169 1
E 1171 1170 1
E 1214 1171 1
E 1170 1172 1
E 1174 1173 1
E 1173 1175 1
E 1177 1176 1
E 1179 1177 1
E 1176 1178 1
E 1180 1178 1
E 1181 1180 1
E 1179 1181 1
E 1189 1182 1
E 1185 1183 1
E 1186 1183 1
E 1239 1184 1
E 1184 1185 1
E 1184 1186 1
E 1190 1187 1
E 1239 1187 1
E 1370 1187 1
E 1061 1188 1
E 1091 1188 1
E 1132 1188 1
E 1188 1189 1
E 1219 1189 1
E 1189 1190 1
E 1228 1190 1
E 1237 1191 1
E 1191 1192 1
E 1192 1193 1
E 1199 1195 1
E 1197 1196 1
E 1197 1198 1
E 1196 1199 1
E 1198 1200 1
E 1204 1201 1
E 1201 1202 1
E 1169 1203 1
E 1202 1203 1
E 1169 1205 1
E 1152 1206 1
E 1251 1206 1
E 1210 1208 1
E 1213 1209 1
E 1209 1210 1
E 1207 1211 1
E 1211 1212 1
E 1213 1212 1
E 1113 1214 1
E 1213 1214 1
E 1384 1214 1
E 1240 1215 1
E 1218 1216 1
E 1218 1217 1
E 1219 1220 1
E 1220 1221 1
E 1222 1221 1
E 1219 1222 1
E 1238 1223 1
E 1223 1224 1
E 1224 1225 1
E 1228 1226 1
E 1229 1227 1
E 1228 1229 1
E 1227 1230 1
E 1231 1230 1
E 1226 1231 1
E 1233 1232 1
E 1214 1233 1
E 1233 1234 1
E 1234 1235 1
E 1232 1236 1
E 1235 1236 1
E 1189 1237 1
E 1237 1238 1
E 1265 1238 1
E 1370 1238 1
E 1169 1239 1
E 1174 1239 1
E 1245 1239 1
E 1206 1242 1
E 1243 1242 1
E 1243 1244 1
E 1245 1246 1
E 1247 1246 1
E 1247 1248 1
E 1249 1248 1
E 1245 1249 1
E 1152 1250 1
E 1286 1250 1
E 1388 1250 1
E 1167 1251 1
E 1197 1251 1
E 1241 1251 1
E 1255 1251 1
E 1364 1251 1
E 1254 1252 1
E 1251 1253 1
E 1252 1253 1
E 1190 1256 1
E 1257 1256 1
E 1258 1257 1
E 1187 1259 1
E 1266 1260 1
E 1263 1262 1
E 1264 1262 1
E 1260 1263 1
E 1261 1264 1
E 1271 1265 1
E 1268 1266 1
E 1265 1267 1
E 1267 1268 1
E 1261 1269 1
E 1269 1270 1
E 1270 1271 1
E 1238 1272 1
E 1272 1273 1
E 1273 1274 1
E 1238 1275 1
E 1275 1276 1
E 1276 1277 1
E 1279 1278 1
E 1217 1279 1
E 1217 1280 1
E 1169 1281 1
E 1291 1281 1
E 1216 1282 1
E 1287 1283 1
E 1286 1285 1
E 1283 1286 1
E 1284 1286 1
E 1284 1287 1
E 1285 1287 1
E 1187 1288 1
E 1288 1289 1
E 1289 1290 1
E 1291 1292 1
E 1291 1293 1
E 1295 1293 1
E 1291 1294 1
E 1292 1295 1
E 1294 1295 1
E 1297 1296 1
E 1215 1298 1
E 1297 1298 1
E 1345 1298 1
E 1300 1299 1
E 1364 1300 1
E 1299 1301 1
E 1303 1302 1
E 1393 1303 1
E 1303 1304 1
E 1187 1305 1
E 1307 1306 1
E 1308 1307 1
E 1370 1309 1
E 1309 1310 1
E 1310 1311 1
E 1216 1312 1
E 1312 1313 1
E 1333 1314 1
E 1335 1314 1
E 1388 1314 1
E 1317 1316 1
E 1315 1317 1
E 1240 1318 1
E 1318 1319 1
E 1319 1320 1
E 1320 1321 1
E 1318 1322 1
E 1322 1323 1
E 1323 1324 1
E 1327 1325 1
E 1282 1326 1
E 1326 1327 1
E 1330 1328 1
E 1282 1329 1
E 1329 1330 1
E 1332 1331 1
E 1280 1332 1
E 1331 1333 1
E 1336 1334 1
E 1334 1335 1
E 1280 1336 1
E 1240 1337 1
E 1337 1338 1
E 1340 1339 1
E 1384 1340 1
E 1339 1341 1
E 1343 1342 1
E 1344 1343 1
E 1345 1344 1
E 1348 1345 1
E 1414 1346 1
E 1346 1347 1
E 1347 1348 1
E 1350 1349 1
E 1350 1351 1
E 1352 1353 1
E 1353 1354 1
E 1238 1355 1
E 1359 1356 1
E 1356 1357 1
E 1359 1358 1
E 1357 1360 1
E 1358 1360 1
E 1187 1361 1
E 1361 1362 1
E 1362 1363 1
E 1359 1364 1
E 1452 1364 1
E 1364 1366 1
E 1367 1366 1
E 1369 1366 1
E 1367 1368 1
E 1371 1370 1
E 1443 1370 1
E 1373 1371 1
E 1376 1371 1
E 1374 1372 1
E 1372 1373 1
E 1374 1375 1
E 1375 1376 1
E 1406 1377 1
E 1412 1378 1
E 1378 1379 1
E 1379 1380 1
E 1381 1382 1
E 1382 1383 1
E 1384 1383 1
E 1251 1384 1
E 1306 1384 1
E 1325 1385 1
E 1328 1385 1
E 1399 1385 1
E 1402 1385 1
E 1315 1386 1
E 1393 1386 1
E 1423 1386 1
E 1313 1387 1
E 1385 1387 1
E 1386 1387 1
E 1589 1387 1
E 1278 1388 1
E 1389 1388 1
E 1433 1388 1
E 1391 1389 1
E 1390 1391 1
E 1349 1392 1
E 1394 1392 1
E 1420 1392 1
E 1352 1393 1
E 1365 1393 1
E 1392 1393 1
E 1429 1393 1
E 1475 1393 1
E 1296 1394 1
E 1414 1394 1
E 1586 1394 1
E 1364 1396 1
E 1401 1397 1
E 1402 1397 1
E 1399 1398 1
E 1314 1400 1
E 1398 1400 1
E 1314 1401 1
E 1404 1403 1
E 1384 1404 1
E 1403 1405 1
E 1377 1407 1
E 1410 1408 1
E 1370 1409 1
E 1409 1410 1
E 1281 1412 1
E 1338 1412 1
E 1413 1412 1
E 1438 1412 1
E 1321 1413 1
E 1324 1413 1
E 1406 1413 1
E 1430 1413 1
E 1506 1413 1
E 1342 1414 1
E 1407 1414 1
E 1431 1414 1
E 1393 1415 1
E 1415 1416 1
E 1416 1417 1
E 1384 1418 1
E 1421 1419 1
E 1420 1421 1
E 1419 1422 1
E 1420 1422 1
E 1423 1424 1
E 1423 1425 1
E 1424 1426 1
E 1425 1426 1
E 1428 1427 1
E 1428 1429 1
E 1456 1431 1
E 1452 1432 1
E 1432 1434 1
E 1433 1434 1
E 1436 1435 1
E 1437 1436 1
E 1438 1439 1
E 1438 1440 1
E 1439 1441 1
E 1440 1441 1
E 1444 1443 1
E 1442 1444 1
E 1446 1445 1
E 1483 1446 1
E 1445 1447 1
E 1448 1449 1
E 1448 1450 1
E 1449 1451 1
E 1450 1451 1
E 1390 1452 1
E 1453 1454 1
E 1454 1455 1
E 1430 1456 1
E 1458 1457 1
E 1452 1458 1
E 1457 1459 1
E 1465 1460 1
E 1460 1461 1
E 1463 1462 1
E 1465 1463 1
E 1385 1464 1
E 1465 1464 1
E 1547 1466 1
E 1466 1467 1
E 1467 1468 1
E 1466 1469 1
E 1468 1470 1
E 1469 1470 1
E 1472 1471 1
E 1483 1471 1
E 1473 1472 1
E 1364 1473 1
E 1471 1474 1
E 1497 1475 1
E 1584 1475 1
E 1477 1476 1
E 1478 1476 1
E 1314 1477 1
E 1314 1479 1
E 1479 1481 1
E 1480 1481 1
E 1368 1483 1
E 1384 1483 1
E 1486 1483 1
E 1487 1484 1
E 1484 1485 1
E 1486 1485 1
E 1490 1488 1
E 1489 1490 1
E 1493 1491 1
E 1495 1491 1
E 1475 1492 1
E 1492 1494 1
E 1494 1495 1
E 1497 1496 1
E 1496 1498 1
E 1498 1499 1
E 1499 1500 1
E 1581 1501 1
E 1591 1501 1
E 1604 1501 1
E 1187 1502 1
E 1448 1502 1
E 1501 1502 1
E 1612 1502 1
E 1512 1504 1
E 1507 1505 1
E 1505 1506 1
E 1511 1507 1
E 1602 1507 1
E 1413 1508 1
E 1510 1509 1
E 1511 1509 1
E 1508 1510 1
E 1504 1511 1
E 1506 1512 1
E 1508 1512 1
E 1414 1513 1
E 1515 1513 1
E 1517 1514 1
E 1514 1515 1
E 1513 1516 1
E 1521 1517 1
E 1414 1518 1
E 1516 1518 1
E 1517 1519 1
E 1520 1519 1
E 1518 1520 1
E 1516 1521 1
E 1452 1522 1
E 1524 1523 1
E 1522 1524 1
E 1527 1525 1
E 1527 1526 1
E 1501 1527 1
E 1525 1528 1
E 1526 1528 1
E 1502 1530 1
E 1529 1530 1
E 1529 1531 1
E 1534 1532 1
E 1534 1533 1
E 1532 1535 1
E 1533 1535 1
E 1544 1536 1
E 1542 1537 1
E 1546 1537 1
E 1539 1538 1
E 1537 1539 1
E 1544 1540 1
E 1540 1541 1
E 1543 1542 1
E 1544 1543 1
E 1538 1544 1
E 1536 1545 1
E 1541 1546 1
E 1545 1546 1
E 1370 1547 1
E 1488 1547 1
E 1544 1547 1
E 1575 1547 1
E 1662 1547 1
E 1550 1549 1
E 1549 1551 1
E 1555 1552 1
E 1552 1553 1
E 1555 1554 1
E 1556 1554 1
E 1590 1555 1
E 1553 1556 1
E 1483 1557 1
E 1557 1558 1
E 1558 1559 1
E 1557 1560 1
E 1560 1561 1
E 1584 1562 1
E 1584 1563 1
E 1567 1566 1
E 1593 1567 1
E 1566 1568 1
E 1567 1568 1
E 1593 1569 1
E 1684 1569 1
E 1388 1570 1
E 1452 1570 1
E 1569 1570 1
E 1572 1571 1
E 1570 1572 1
E 1573 1572 1
E 1574 1573 1
E 1571 1574 1
E 1575 1576 1
E 1576 1577 1
E 1575 1578 1
E 1577 1579 1
E 1578 1579 1
E 1547 1580 1
E 1412 1581 1
E 1534 1581 1
E 1602 1581 1
E 1581 1582 1
E 1620 1582 1
E 1688 1582 1
E 1694 1582 1
E 1493 1583 1
E 1550 1583 1
E 1586 1583 1
E 1621 1583 1
E 1583 1584 1
E 1624 1584 1
E 1619 1585 1
E 1636 1585 1
E 1690 1585 1
E 1585 1586 1
E 1603 1586 1
E 1500 1587 1
E 1564 1587 1
E 1584 1587 1
E 1589 1587 1
E 1633 1587 1
E 1589 1588 1
E 1592 1588 1
E 1483 1590 1
E 1637 1590 1
E 1461 1592 1
E 1462 1592 1
E 1566 1592 1
E 1478 1593 1
E 1480 1593 1
E 1590 1594 1
E 1594 1595 1
E 1597 1595 1
E 1594 1596 1
E 1596 1597 1
E 1619 1598 1
E 1620 1598 1
E 1600 1599 1
E 1661 1599 1
E 1601 1600 1
E 1599 1601 1
E 1509 1602 1
E 1514 1603 1
E 1519 1603 1
E 1619 1603 1
E 1606 1604 1
E 1608 1604 1
E 1607 1605 1
E 1605 1606 1
E 1607 1608 1
E 1610 1609 1
E 1611 1610 1
E 1662 1610 1
E 1612 1611 1
E 1581 1613 1
E 1613 1614 1
E 1615 1614 1
E 1662 1616 1
E 1618 1617 1
E 1616 1618 1
E 1602 1620 1
E 1622 1621 1
E 1623 1622 1
E 1624 1625 1
E 1624 1626 1
E 1626 1627 1
E 1625 1628 1
E 1627 1628 1
E 1631 1629 1
E 1584 1630 1
E 1631 1630 1
E 1634 1633 1
E 1632 1634 1
E 1569 1635 1
E 1588 1635 1
E 1674 1635 1
E 1676 1635 1
E 1582 1636 1
E 1696 1636 1
E 1637 1638 1
E 1637 1639 1
E 1638 1640 1
E 1639 1640 1
E 1570 1641 1
E 1642 1641 1
E 1643 1642 1
E 1645 1644 1
E 1641 1645 1
E 1589 1646 1
E 1646 1647 1
E 1648 1647 1
E 1646 1649 1
E 1648 1650 1
E 1649 1650 1
E 1685 1651 1
E 1653 1652 1
E 1651 1653 1
E 1652 1654 1
E 1657 1655 1
E 1655 1656 1
E 1660 1656 1
E 1657 1658 1
E 1658 1659 1
E 1659 1660 1
E 1570 1661 1
E 1590 1661 1
E 1657 1661 1
E 1664 1662 1
E 1665 1663 1
E 1667 1664 1
E 1664 1665 1
E 1663 1666 1
E 1666 1667 1
E 1668 1669 1
E 1668 1670 1
E 1670 1671 1
E 1669 1672 1
E 1671 1672 1
E 1678 1675 1
E 1673 1677 1
E 1674 1677 1
E 1676 1678 1
E 1588 1679 1
E 1681 1680 1
E 1679 1681 1
E 1684 1683 1
E 1682 1684 1
E 1662 1685 1
E 1688 1686 1
E 1686 1687 1
E 1691 1689 1
E 1691 1690 1
E 1661 1692 1
E 1695 1693 1
E 1695 1694 1
E 1700 1696 1
E 1702 1696 1
E 1700 1697 1
E 1697 1698 1
E 1699 1698 1
E 1701 1698 1
E 1696 1699 1
E 1702 1701 1
E 1585 1703 1
E 1705 1704 1
E 1703 1705 1
E 1723 1707 1
E 1706 1708 1
E 1707 1708 1
E 1685 1709 1
E 1709 1710 1
E 1710 1711 1
E 1711 1712 1
E 1715 1713 1
E 1713 1714 1
E 1715 1716 1
E 1714 1717 1
E 1716 1717 1
E 1719 1718 1
E 1760 1719 1
E 1718 1720 1
E 1720 1721 1
E 1584 1722 1
E 1734 1722 1
E 1760 1722 1
E 1779 1722 1
E 1662 1723 1
E 1668 1723 1
E 1755 1723 1
E 1725 1724 1
E 1726 1724 1
E 1727 1725 1
E 1727 1726 1
E 1723 1727 1
E 1661 1728 1
E 1728 1729 1
E 1728 1730 1
E 1729 1731 1
E 1730 1731 1
E 1733 1732 1
E 1734 1733 1
E 1736 1735 1
E 1737 1735 1
E 1738 1739 1
E 1740 1739 1
E 1744 1741 1
E 1722 1742 1
E 1742 1743 1
E 1743 1744 1
E 1745 1746 1
E 1746 1747 1
E 1756 1749 1
E 1749 1750 1
E 1750 1751 1
E 1753 1752 1
E 1758 1753 1
E 1752 1754 1
E 1687 1756 1
E 1693 1756 1
E 1723 1756 1
E 1748 1756 1
E 1757 1756 1
E 1698 1757 1
E 1758 1757 1
E 1689 1758 1
E 1704 1758 1
E 1759 1758 1
E 1722 1759 1
E 1745 1759 1
E 1807 1759 1
E 1680 1760 1
E 1780 1760 1
E 1673 1761 1
E 1675 1761 1
E 1736 1761 1
E 1738 1761 1
E 1760 1761 1
E 1821 1761 1
E 1661 1762 1
E 1683 1762 1
E 1713 1762 1
E 1761 1762 1
E 1767 1762 1
E 1764 1763 1
E 1767 1764 1
E 1767 1765 1
E 1765 1766 1
E 1763 1768 1
E 1766 1768 1
E 1772 1769 1
E 1771 1770 1
E 1769 1771 1
E 1776 1772 1
E 1777 1773 1
E 1775 1774 1
E 1723 1775 1
E 1774 1776 1
E 1775 1777 1
E 1770 1778 1
E 1773 1778 1
E 1781 1782 1
E 1722 1783 1
E 1782 1783 1
E 1758 1784 1
E 1784 1785 1
E 1785 1786 1
E 1756 1787 1
E 1788 1787 1
E 1789 1788 1
E 1789 1790 1
E 1787 1791 1
E 1791 1792 1
E 1792 1793 1
E 1793 1794 1
E 1790 1795 1
E 1801 1796 1
E 1798 1797 1
E 1796 1798 1
E 1802 1799 1
E 1804 1800 1
E 1758 1801 1
E 1799 1801 1
E 1800 1802 1
E 1797 1803 1
E 1807 1805 1
E 1809 1806 1
E 1805 1808 1
E 1806 1808 1
E 1807 1809 1
E 1811 1810 1
E 1812 1811 1
E 1756 1812 1
E 1810 1813 1
E 1815 1813 1
E 1812 1814 1
E 1816 1815 1
E 1817 1816 1
E 1819 1817 1
E 1814 1818 1
E 1819 1818 1
E 1825 1820 1
E 1821 1823 1
E 1826 1823 1
E 1820 1824 1
E 1821 1824 1
E 1827 1825 1
E 1822 1826 1
E 1822 1828 1
E 1837 1830 1
E 1832 1831 1
E 1835 1832 1
E 1762 1834 1
E 1831 1834 1
E 1837 1834 1
E 1833 1835 1
E 1829 1836 1
E 1830 1836 1
E 1845 1839 1
E 1846 1839 1
E 1760 1840 1
E 1842 1840 1
E 1843 1840 1
E 1840 1841 1
E 1844 1842 1
E 1838 1843 1
E 1841 1845 1
E 1841 1846 1
E 1848 1847 1
E 1849 1848 1
END
